50
120
100
98
96
95
95
93
91
89
89
88
88
81
80
78
73
72
69
67
64
61
60
54
52
52
51
50
50
49
49
47
46
44
43
42
41
40
40
39
36
33
33
28
26
26
25
23
22
22
22
20
